32 33
27
3 3 13 23
3 4 26 0
3 5 12 0
3 6 9 1
3 7 3 26
3 8 0 0
3 9 6 0
3 10 10 23
3 11 22 4
3 12 3 0
3 13 6 9
3 14 3 12
3 15 9 7
3 18 22 15
3 22 29 0
3 23 16 3
3 24 25 9
3 25 0 8
3 27 19 0
4 3 15 0
4 4 22 0
4 5 25 4
4 6 18 27
4 7 14 26
4 10 28 22
4 11 6 22
4 18 12 5
